data/lp_files/pEFS/36_7.lp
\ Model foo
\ LP format - for model browsing. Use MPS format to capture full model detail.
Minimize
  z
Subject To
 allocateEach[1]: x[1,1] + x[2,1] = 1
 allocateEach[2]: x[1,2] + x[2,2] = 1
 allocateEach[3]: x[1,3] + x[2,3] = 1
 allocateEach[4]: x[1,4] + x[2,4] = 1
 allocateEach[5]: x[1,5] + x[2,5] = 1
 allocateEach[6]: x[1,6] + x[2,6] = 1
 allocateEach[7]: x[1,7] + x[2,7] = 1
 allocateEach[8]: x[1,8] + x[2,8] = 1
 allocateEach[9]: x[1,9] + x[2,9] = 1
 allocateEach[10]: x[1,10] + x[2,10] = 1
 allocateEach[11]: x[1,11] + x[2,11] = 1
 allocateEach[12]: x[1,12] + x[2,12] = 1
 allocateEach[13]: x[1,13] + x[2,13] = 1
 allocateEach[14]: x[1,14] + x[2,14] = 1
 allocateEach[15]: x[1,15] + x[2,15] = 1
 allocateEach[16]: x[1,16] + x[2,16] = 1
 allocateAllCash: cashProportion[1] + cashProportion[2] = 1
 findWorstP[1,2]: z + 0.0822954956932024 cashProportion[1]
   - 0.0822954956932024 cashProportion[2] + 0.00484171832995007 x[1,1]
   + 0.0239891369945685 x[1,2] + 0.1319471114281011 x[1,3]
   + 0.1206726285181324 x[1,4] + 0.0257584901519723 x[1,5]
   + 0.0373072913809184 x[1,6] + 0.0598151094530093 x[1,7]
   + 0.0369918253140945 x[1,8] + 0.1146376255006309 x[1,9]
   + 0.084915235639436 x[1,10] + 0.0766856860701158 x[1,11]
   + 0.00447138859933066 x[1,12] + 0.088933999012454 x[1,13]
   + 0.00504745706918308 x[1,14] + 0.016815712953311 x[1,15]
   + 0.0848740878915894 x[1,16] - 0.00484171832995007 x[2,1]
   - 0.0239891369945685 x[2,2] - 0.1319471114281011 x[2,3]
   - 0.1206726285181324 x[2,4] - 0.0257584901519723 x[2,5]
   - 0.0373072913809184 x[2,6] - 0.0598151094530093 x[2,7]
   - 0.0369918253140945 x[2,8] - 0.1146376255006309 x[2,9]
   - 0.084915235639436 x[2,10] - 0.0766856860701158 x[2,11]
   - 0.00447138859933066 x[2,12] - 0.088933999012454 x[2,13]
   - 0.00504745706918308 x[2,14] - 0.016815712953311 x[2,15]
   - 0.0848740878915894 x[2,16] >= 0
 findWorstP[2,1]: z - 0.0686326096405939 cashProportion[1]
   + 0.0686326096405939 cashProportion[2] - 0.0647891835007207 x[1,1]
   - 0.0322573265310791 x[1,2] - 0.0971380201779872 x[1,3]
   - 0.0440163803161676 x[1,4] - 0.0812381322779163 x[1,5]
   - 0.102502802498227 x[1,6] - 0.0794994395003546 x[1,7]
   - 0.0727048111459358 x[1,8] - 0.0623984809315733 x[1,9]
   - 0.0311020109354625 x[1,10] - 0.0480199492118689 x[1,11]
   - 0.0261261467365194 x[1,12] - 0.0894740454347876 x[1,13]
   - 0.0431241563908398 x[1,14] - 0.0364324769508819 x[1,15]
   - 0.0205440278190844 x[1,16] + 0.0647891835007207 x[2,1]
   + 0.0322573265310791 x[2,2] + 0.0971380201779872 x[2,3]
   + 0.0440163803161676 x[2,4] + 0.0812381322779163 x[2,5]
   + 0.102502802498227 x[2,6] + 0.0794994395003546 x[2,7]
   + 0.0727048111459358 x[2,8] + 0.0623984809315733 x[2,9]
   + 0.0311020109354625 x[2,10] + 0.0480199492118689 x[2,11]
   + 0.0261261467365194 x[2,12] + 0.0894740454347876 x[2,13]
   + 0.0431241563908398 x[2,14] + 0.0364324769508819 x[2,15]
   + 0.0205440278190844 x[2,16] >= 0
Bounds
 z <= 1
 -infinity <= cashProportion[1] <= 1
 -infinity <= cashProportion[2] <= 1
Binaries
 x[1,1] x[1,2] x[1,3] x[1,4] x[1,5] x[1,6] x[1,7] x[1,8] x[1,9] x[1,10]
 x[1,11] x[1,12] x[1,13] x[1,14] x[1,15] x[1,16] x[2,1] x[2,2] x[2,3]
 x[2,4] x[2,5] x[2,6] x[2,7] x[2,8] x[2,9] x[2,10] x[2,11] x[2,12] x[2,13]
 x[2,14] x[2,15] x[2,16]
End
