data/mps_files/pEFS/36_7.mps
NAME foo
ROWS
 N  OBJ
 E  allocateEach[1]
 E  allocateEach[2]
 E  allocateEach[3]
 E  allocateEach[4]
 E  allocateEach[5]
 E  allocateEach[6]
 E  allocateEach[7]
 E  allocateEach[8]
 E  allocateEach[9]
 E  allocateEach[10]
 E  allocateEach[11]
 E  allocateEach[12]
 E  allocateEach[13]
 E  allocateEach[14]
 E  allocateEach[15]
 E  allocateEach[16]
 E  allocateAllCash
 G  findWorstP[1,2]
 G  findWorstP[2,1]
COLUMNS
    z         OBJ       1
    z         findWorstP[1,2]  1
    z         findWorstP[2,1]  1
    cashProportion[1]  allocateAllCash  1
    cashProportion[1]  findWorstP[1,2]  0.0822954956932024
    cashProportion[1]  findWorstP[2,1]  -6.8632609640593922e-02
    cashProportion[2]  allocateAllCash  1
    cashProportion[2]  findWorstP[1,2]  -0.0822954956932024
    cashProportion[2]  findWorstP[2,1]  6.8632609640593922e-02
    MARKER    'MARKER'                 'INTORG'
    x[1,1]    allocateEach[1]  1
    x[1,1]    findWorstP[1,2]  4.8417183299500734e-03
    x[1,1]    findWorstP[2,1]  -6.4789183500720660e-02
    x[1,2]    allocateEach[2]  1
    x[1,2]    findWorstP[1,2]  2.3989136994568495e-02
    x[1,2]    findWorstP[2,1]  -3.2257326531079135e-02
    x[1,3]    allocateEach[3]  1
    x[1,3]    findWorstP[1,2]  1.3194711142810114e-01
    x[1,3]    findWorstP[2,1]  -9.7138020177987242e-02
    x[1,4]    allocateEach[4]  1
    x[1,4]    findWorstP[1,2]  1.2067262851813243e-01
    x[1,4]    findWorstP[2,1]  -4.4016380316167558e-02
    x[1,5]    allocateEach[5]  1
    x[1,5]    findWorstP[1,2]  2.5758490151972343e-02
    x[1,5]    findWorstP[2,1]  -8.1238132277916333e-02
    x[1,6]    allocateEach[6]  1
    x[1,6]    findWorstP[1,2]  3.7307291380918414e-02
    x[1,6]    findWorstP[2,1]  -0.102502802498227
    x[1,7]    allocateEach[7]  1
    x[1,7]    findWorstP[1,2]  5.9815109453009260e-02
    x[1,7]    findWorstP[2,1]  -7.9499439500354610e-02
    x[1,8]    allocateEach[8]  1
    x[1,8]    findWorstP[1,2]  3.6991825314094472e-02
    x[1,8]    findWorstP[2,1]  -7.2704811145935827e-02
    x[1,9]    allocateEach[9]  1
    x[1,9]    findWorstP[1,2]  1.1463762550063092e-01
    x[1,9]    findWorstP[2,1]  -0.0623984809315733
    x[1,10]   allocateEach[10]  1
    x[1,10]   findWorstP[1,2]  8.4915235639435982e-02
    x[1,10]   findWorstP[2,1]  -3.1102010935462474e-02
    x[1,11]   allocateEach[11]  1
    x[1,11]   findWorstP[1,2]  7.6685686070115763e-02
    x[1,11]   findWorstP[2,1]  -4.8019949211868876e-02
    x[1,12]   allocateEach[12]  1
    x[1,12]   findWorstP[1,2]  4.4713885993306621e-03
    x[1,12]   findWorstP[2,1]  -2.6126146736519414e-02
    x[1,13]   allocateEach[13]  1
    x[1,13]   findWorstP[1,2]  8.8933999012454037e-02
    x[1,13]   findWorstP[2,1]  -0.0894740454347876
    x[1,14]   allocateEach[14]  1
    x[1,14]   findWorstP[1,2]  5.0474570691830794e-03
    x[1,14]   findWorstP[2,1]  -4.3124156390839843e-02
    x[1,15]   allocateEach[15]  1
    x[1,15]   findWorstP[1,2]  1.6815712953311020e-02
    x[1,15]   findWorstP[2,1]  -3.6432476950881934e-02
    x[1,16]   allocateEach[16]  1
    x[1,16]   findWorstP[1,2]  8.4874087891589386e-02
    x[1,16]   findWorstP[2,1]  -2.0544027819084446e-02
    x[2,1]    allocateEach[1]  1
    x[2,1]    findWorstP[1,2]  -4.8417183299500734e-03
    x[2,1]    findWorstP[2,1]  6.4789183500720660e-02
    x[2,2]    allocateEach[2]  1
    x[2,2]    findWorstP[1,2]  -2.3989136994568495e-02
    x[2,2]    findWorstP[2,1]  3.2257326531079135e-02
    x[2,3]    allocateEach[3]  1
    x[2,3]    findWorstP[1,2]  -1.3194711142810114e-01
    x[2,3]    findWorstP[2,1]  9.7138020177987242e-02
    x[2,4]    allocateEach[4]  1
    x[2,4]    findWorstP[1,2]  -1.2067262851813243e-01
    x[2,4]    findWorstP[2,1]  4.4016380316167558e-02
    x[2,5]    allocateEach[5]  1
    x[2,5]    findWorstP[1,2]  -2.5758490151972343e-02
    x[2,5]    findWorstP[2,1]  8.1238132277916333e-02
    x[2,6]    allocateEach[6]  1
    x[2,6]    findWorstP[1,2]  -3.7307291380918414e-02
    x[2,6]    findWorstP[2,1]  0.102502802498227
    x[2,7]    allocateEach[7]  1
    x[2,7]    findWorstP[1,2]  -5.9815109453009260e-02
    x[2,7]    findWorstP[2,1]  7.9499439500354610e-02
    x[2,8]    allocateEach[8]  1
    x[2,8]    findWorstP[1,2]  -3.6991825314094472e-02
    x[2,8]    findWorstP[2,1]  7.2704811145935827e-02
    x[2,9]    allocateEach[9]  1
    x[2,9]    findWorstP[1,2]  -1.1463762550063092e-01
    x[2,9]    findWorstP[2,1]  0.0623984809315733
    x[2,10]   allocateEach[10]  1
    x[2,10]   findWorstP[1,2]  -8.4915235639435982e-02
    x[2,10]   findWorstP[2,1]  3.1102010935462474e-02
    x[2,11]   allocateEach[11]  1
    x[2,11]   findWorstP[1,2]  -7.6685686070115763e-02
    x[2,11]   findWorstP[2,1]  4.8019949211868876e-02
    x[2,12]   allocateEach[12]  1
    x[2,12]   findWorstP[1,2]  -4.4713885993306621e-03
    x[2,12]   findWorstP[2,1]  2.6126146736519414e-02
    x[2,13]   allocateEach[13]  1
    x[2,13]   findWorstP[1,2]  -8.8933999012454037e-02
    x[2,13]   findWorstP[2,1]  0.0894740454347876
    x[2,14]   allocateEach[14]  1
    x[2,14]   findWorstP[1,2]  -5.0474570691830794e-03
    x[2,14]   findWorstP[2,1]  4.3124156390839843e-02
    x[2,15]   allocateEach[15]  1
    x[2,15]   findWorstP[1,2]  -1.6815712953311020e-02
    x[2,15]   findWorstP[2,1]  3.6432476950881934e-02
    x[2,16]   allocateEach[16]  1
    x[2,16]   findWorstP[1,2]  -8.4874087891589386e-02
    x[2,16]   findWorstP[2,1]  2.0544027819084446e-02
    MARKER    'MARKER'                 'INTEND'
RHS
    RHS1      allocateEach[1]  1
    RHS1      allocateEach[2]  1
    RHS1      allocateEach[3]  1
    RHS1      allocateEach[4]  1
    RHS1      allocateEach[5]  1
    RHS1      allocateEach[6]  1
    RHS1      allocateEach[7]  1
    RHS1      allocateEach[8]  1
    RHS1      allocateEach[9]  1
    RHS1      allocateEach[10]  1
    RHS1      allocateEach[11]  1
    RHS1      allocateEach[12]  1
    RHS1      allocateEach[13]  1
    RHS1      allocateEach[14]  1
    RHS1      allocateEach[15]  1
    RHS1      allocateEach[16]  1
    RHS1      allocateAllCash  1
BOUNDS
 UP BND1      z         1
 MI BND1      cashProportion[1]
 UP BND1      cashProportion[1]  1
 MI BND1      cashProportion[2]
 UP BND1      cashProportion[2]  1
 BV BND1      x[1,1]  
 BV BND1      x[1,2]  
 BV BND1      x[1,3]  
 BV BND1      x[1,4]  
 BV BND1      x[1,5]  
 BV BND1      x[1,6]  
 BV BND1      x[1,7]  
 BV BND1      x[1,8]  
 BV BND1      x[1,9]  
 BV BND1      x[1,10] 
 BV BND1      x[1,11] 
 BV BND1      x[1,12] 
 BV BND1      x[1,13] 
 BV BND1      x[1,14] 
 BV BND1      x[1,15] 
 BV BND1      x[1,16] 
 BV BND1      x[2,1]  
 BV BND1      x[2,2]  
 BV BND1      x[2,3]  
 BV BND1      x[2,4]  
 BV BND1      x[2,5]  
 BV BND1      x[2,6]  
 BV BND1      x[2,7]  
 BV BND1      x[2,8]  
 BV BND1      x[2,9]  
 BV BND1      x[2,10] 
 BV BND1      x[2,11] 
 BV BND1      x[2,12] 
 BV BND1      x[2,13] 
 BV BND1      x[2,14] 
 BV BND1      x[2,15] 
 BV BND1      x[2,16] 
ENDATA
